
Gurobi 9.1.2 (linux64) logging started Wed Apr 13 17:31:41 2022

Changed value of parameter LogFile to ls_sym_v-(2, 3).log
   Prev:   Default: 
Changed value of parameter MIPFocus to 1
   Prev: 0  Min: 0  Max: 3  Default: 0
Changed value of parameter TimeLimit to 10800.0
   Prev: inf  Min: 0.0  Max: inf  Default: inf
Warning: variable name "X[(1, 0),(3, 0)]" has a space
Warning: constraint name "flow-constr-t0-v(2, 1)" has a space
Warning: to let Gurobi read it back, use rlp format
Gurobi Optimizer version 9.1.2 build v9.1.2rc0 (linux64)
Thread count: 32 physical cores, 64 logical processors, using up to 32 threads
Optimize a model with 4791 rows, 4352 columns and 16456 nonzeros
Model fingerprint: 0xea15e602
Variable types: 512 continuous, 3840 integer (3840 binary)
Coefficient statistics:
  Matrix range     [1e+00, 7e+04]
  Objective range  [1e-01, 1e-01]
  Bounds range     [1e+00, 3e+04]
  RHS range        [1e+00, 7e+04]
Presolve removed 563 rows and 600 columns
Presolve time: 0.07s
Presolved: 4228 rows, 3752 columns, 24639 nonzeros
Variable types: 512 continuous, 3240 integer (3240 binary)

Root relaxation: objective 6.400000e+01, 137 iterations, 0.00 seconds

    Nodes    |    Current Node    |     Objective Bounds      |     Work
 Expl Unexpl |  Obj  Depth IntInf | Incumbent    BestBd   Gap | It/Node Time

     0     0   64.00000    0   34          -   64.00000      -     -    0s
H    0     0                    2414.1249995   64.00000  97.3%     -    0s
H    0     0                    2413.7499995   64.00000  97.3%     -    0s
H    0     0                     130.6250000   64.00000  51.0%     -    0s
H    0     0                     127.5000000   64.00000  49.8%     -    0s
     0     0   64.00000    0   81  127.50000   64.00000  49.8%     -    0s
H    0     0                      92.8020833   64.00000  31.0%     -    0s
H    0     0                      91.3750000   64.00000  30.0%     -    0s
     0     0   64.00000    0   88   91.37500   64.00000  30.0%     -    0s
H    0     0                      82.6212121   64.00000  22.5%     -    0s
     0     0   64.00000    0   24   82.62121   64.00000  22.5%     -    0s
H    0     0                      79.3750000   64.00000  19.4%     -    0s
H    0     0                      76.4166667   64.00000  16.2%     -    0s
     0     0   64.00000    0   30   76.41667   64.00000  16.2%     -    0s
H    0     0                      70.7868852   64.00000  9.59%     -    1s
H    0     0                      70.1875000   64.00000  8.82%     -    1s
     0     0   64.00000    0   44   70.18750   64.00000  8.82%     -    1s
     0     0   64.00000    0   22   70.18750   64.00000  8.82%     -    1s
     0     0   64.00000    0   24   70.18750   64.00000  8.82%     -    1s
H    0     0                      67.5516304   64.00000  5.26%     -    1s
     0     0   64.00000    0   18   67.55163   64.00000  5.26%     -    1s
H    0     0                      66.2500000   64.00000  3.40%     -    1s
     0     2   64.00000    0   16   66.25000   64.00000  3.40%     -    1s
H    1     4                      65.2500000   64.00000  1.92%   366    1s
H   32    64                      64.6250000   64.00000  0.97%  30.6    2s
H   52    64                      64.5625000   64.00000  0.87%  20.3    2s
H   95   128                      64.3750000   64.00000  0.58%  14.4    3s
H   96   128                      64.3000000   64.00000  0.47%  14.3    3s
H   96   128                      64.1875000   64.00000  0.29%  14.3    3s
H   98   128                      64.1250000   64.00000  0.19%  14.1    3s
H  106   128                      64.0937500   64.00000  0.15%  13.3    3s
H  112   128                      64.0000000   64.00000  0.00%  12.8    3s

Cutting planes:
  Cover: 20
  Implied bound: 36
  Clique: 7
  MIR: 6
  Flow cover: 47
  RLT: 6
  Relax-and-lift: 3

Explored 127 nodes (9800 simplex iterations) in 3.59 seconds
Thread count was 32 (of 64 available processors)

Solution count 10: 64 64.0937 64.125 ... 66.25

Optimal solution found (tolerance 1.00e-04)
Best objective 6.400000000000e+01, best bound 6.400000000000e+01, gap 0.0000%
